c turning on binary mode checking
c parsing input formula with 259840 variables and 1039914 clauses
c finished parsing, read 2981166 bytes from proof file
c detected empty clause; start verification via backward checking
c 1352 of 1039914 clauses in core                            
c 311 of 117752 lemmas in core using 9844 resolution steps
c 0 RAT lemmas in core; 41 redundant literals in core lemmas
s VERIFIED
c verification time: 1.014 seconds
